CMD:
./solvers/bin/cadical --plain --no-reduce -t 1600 ./data/cnfs//beemfrogs4f1/beemfrogs4f1.21.cnf

c --- [ banner ] -------------------------------------------------------------
c 
c CaDiCaL SAT Solver
c Copyright (c) 2016-2024
c A. Biere, M. Fleury, N. Froleyks, K. Fazekas, F. Pollitt, T. Faller
c JKU Linz, University of Freiburg, TU Wien
c 
c Version 2.1.3 5296d3d2a9bf48c154ab2acb5e44625776d821bf
c g++ (Gentoo 12.3.1_p20230526 p2) 12.3.1 20230526 -Wall -Wextra -O3 -DNDEBUG
c Sat Aug 9 07:26:21 PDT 2025 Linux cedar2.int.cedar.computecanada.ca 5.14.0-362.24.2.el9_3.x86_64 x86_64
c 
c --- [ limit ] --------------------------------------------------------------
c 
c setting time limit to 1600 seconds real time (due to '-t 1600')
c 
c --- [ parsing input ] ------------------------------------------------------
c 
c reading DIMACS file from './data/cnfs//beemfrogs4f1/beemfrogs4f1.21.cnf'
c opening file to read './data/cnfs//beemfrogs4f1/beemfrogs4f1.21.cnf'
c found 'p cnf 184911 553631' header
c parsed 553631 clauses in 0.08 seconds process time
c 
c --- [ options ] ------------------------------------------------------------
c 
c   --compact=false                (different from default 'true')
c   --decompose=false              (different from default 'true')
c   --deduplicate=false            (different from default 'true')
c   --elim=false                   (different from default 'true')
c   --probe=false                  (different from default 'true')
c   --reduce=false                 (different from default 'true')
c   --subsume=false                (different from default 'true')
c   --ternary=false                (different from default 'true')
c   --transred=false               (different from default 'true')
c   --vivify=false                 (different from default 'true')
c 
c --- [ solving ] ------------------------------------------------------------
c 
c time measured in process time since initialization
c 
c  seconds  reductions  redundant  irredundant
c         MB    restarts       trail       variables
c          level   conflicts       glue         remaining
c 
c *  0.08 82  0 0   0    0    0  0% 0 481525 72138 39%
c {  0.08 83  0 0   0    0    0  0% 0 481525 72138 39%
c i  0.13 83 86 0  13  483  385 82% 3 481525 72114 39%
c i  0.17 84 71 0  47  633  509 78% 3 481525 72113 39%
c }  0.21 84 65 0  82 1000  826 76% 4 481525 72113 39%
c [  0.21 84  0 0  82 1000  826  0% 0 481525 72113 39%
c O  0.22 84 17 0  82 1003  829 73% 3 481525 72113 39%
c i  0.37 84 31 0  83 2105 1805 74% 8 481525 72101 39%
c ]  0.51 84 32 0  83 3000 2614 81% 7 481525 72096 39%
c {  0.51 84 65 0  83 3000 2614 76% 4 481525 72096 39%
c F  0.52 84 65 0  84 3007 2621 76% 4 481525 72096 39%
c i  0.53 84 59 0 108 3191 2752 74% 4 481525 72061 39%
c i  0.55 84 57 0 116 3276 2834 74% 4 481525 72056 39%
c i  0.55 84 57 0 116 3279 2835 74% 4 481525 72011 39%
c i  0.61 85 52 0 146 3686 3193 74% 4 481525 72010 39%
c i  0.80 85 44 0 285 5129 4503 72% 4 481525 72005 39%
c i  0.80 85 44 0 285 5130 4503 72% 4 481525 72004 39%
c i  0.80 85 44 0 285 5131 4503 72% 4 481525 72003 39%
c i  0.80 85 44 0 285 5132 4503 72% 4 481525 72002 39%
c i  0.80 85 44 0 285 5133 4503 72% 4 481525 71980 39%
c 
c  seconds  reductions  redundant  irredundant
c         MB    restarts       trail       variables
c          level   conflicts       glue         remaining
c 
c i  0.80 85 44 0 285 5134 4503 72% 4 481525 71869 39%
c i  0.80 85 44 0 285 5166 4532 72% 4 481525 71843 39%
c i  0.82 85 44 0 294 5321 4654 72% 4 481525 71799 39%
c i  0.87 85 43 0 326 5712 5015 72% 4 481525 71798 39%
c i  0.87 85 43 0 329 5776 5069 72% 4 481525 71797 39%
c i  0.87 85 43 0 329 5793 5078 72% 4 481525 71793 39%
c i  0.88 85 43 0 329 5823 5104 72% 4 481525 71733 39%
c i  0.88 85 43 0 329 5855 5133 72% 4 481525 71732 39%
c i  0.88 85 43 0 329 5856 5133 72% 4 481525 71731 39%
c #  0.90 85 42 0 337 6010 5268 72% 4 481525 71731 39%
c i  0.96 85 42 0 379 6218 5462 72% 4 481525 71715 39%
c i  0.96 85 42 0 379 6230 5470 72% 4 481525 71714 39%
c i  0.96 85 42 0 379 6329 5563 73% 4 481525 71713 39%
c i  0.97 85 43 0 383 6462 5681 73% 4 481525 71712 39%
c i  0.98 85 42 0 383 6501 5716 73% 4 481525 71707 39%
c i  0.98 85 42 0 383 6508 5722 73% 4 481525 71704 39%
c i  0.98 85 42 0 383 6510 5723 73% 4 481525 71688 39%
c i  1.00 85 42 0 400 6643 5844 72% 4 481525 71685 39%
c i  1.00 85 41 0 400 6647 5841 72% 4 481525 71665 39%
c i  1.00 85 41 0 400 6650 5843 72% 4 481525 71647 39%
c 
c  seconds  reductions  redundant  irredundant
c         MB    restarts       trail       variables
c          level   conflicts       glue         remaining
c 
c i  1.00 85 41 0 400 6657 5849 72% 4 481525 71643 39%
c i  1.00 85 41 0 400 6666 5856 72% 4 481525 71606 39%
c i  1.00 85 41 0 400 6674 5863 72% 4 481525 71586 39%
c i  1.00 85 41 0 400 6680 5867 72% 4 481525 71538 39%
... skipped 242 lines ...
c  seconds  reductions     redundant  irredundant
c         MB    restarts          trail       variables
c          level     conflicts        glue         remaining
c 
c i  8.64 88 37 0 2150 36475 30533 75% 9 204767 67890 37%
c i  9.00 88 35 0 2150 37403 31336 76% 9 204767 67802 37%
c i  9.12 88 35 0 2150 37714 31623 76% 9 204767 67798 37%
c i 12.62 89 29 0 2154 44278 36908 76% 9 204767 67781 37%
c W 13.32 99 29 0 2154 45018 32316 76% 9 197604 67781 37%
c i 15.20 99 27 0 2155 48179 34732 76% 9 197604 67780 37%
c i 16.50 99 25 0 2155 52495 37937 75% 9 197604 67779 37%
c i 16.57 99 25 0 2155 52781 38151 75% 9 197604 67778 37%
c i 16.82 99 24 0 2155 53635 38810 75% 9 197604 67777 37%
c i 17.20 99 24 0 2156 54724 39501 75% 9 197604 67776 37%
c O 17.28 99 24 0 2156 55019 39765 75% 9 197604 67776 37%
c i 17.86 99 23 0 2157 56330 40724 75% 9 197604 67667 37%
c i 18.28 99 23 0 2158 57605 41885 75% 8 197604 67657 37%
c ] 21.08 99 21 0 2162 63006 46087 75% 9 197604 67657 37%
c { 21.08 99 27 0 2162 63006 46087 72% 4 197604 67657 37%
c i 21.60 99 26 0 2442 64122 47090 72% 4 197604 67655 37%
c i 22.15 99 26 0 2724 65386 48170 72% 5 197604 67638 37%
c i 22.18 99 26 0 2743 65488 48264 72% 5 197604 67627 37%
c B 22.41 99 25 0 2824 66023 48742 72% 5 197604 67627 37%
c i 22.65 99 25 0 2894 66606 49263 72% 5 197604 67624 37%
c 
c  seconds  reductions     redundant  irredundant
c         MB    restarts          trail       variables
c          level     conflicts        glue         remaining
c 
c i 22.87 99 25 0 2983 67043 49596 72% 5 197604 67614 37%
c i 22.89 99 25 0 2983 67116 49655 72% 5 197604 67606 37%
c i 23.08 99 24 0 3021 67618 50045 72% 5 197604 67573 37%
c i 23.11 99 24 0 3021 67723 50117 72% 5 197604 67530 37%
c i 23.35 99 24 0 3153 68261 50552 72% 5 197604 67493 37%
c i 23.91 99 23 0 3387 69554 51448 72% 5 197604 67288 36%
c i 23.93 99 23 0 3387 69595 51461 72% 5 197604 67111 36%
c i 23.93 99 23 0 3387 69612 51474 72% 5 197604 65821 36%
c i 23.93 99 23 0 3387 69615 51475 72% 5 197604 65801 36%
c i 23.93 99 23 0 3387 69624 51482 72% 5 197604 65748 36%
c i 23.94 99 23 0 3387 69635 51487 72% 5 197604 65747 36%
c i 23.99 99 23 0 3387 69716 51532 72% 5 197604 63038 34%
c i 23.99 99 23 0 3387 69717 51532 72% 5 197604 59570 32%
c i 24.00 99 23 0 3387 69727 51534 72% 5 197604 59537 32%
c i 24.00 99 23 0 3387 69737 51539 72% 5 197604 59513 32%
c } 24.00 99 23 0 3387 69740 51539 72% 5 197604 40480 22%
c 0 24.00 99 23 0 3387 69740 51539 72% 5 197604 40480 22%
c 
c --- [ result ] -------------------------------------------------------------
c 
s UNSATISFIABLE
c 
c --- [ run-time profiling ] -------------------------------------------------
c 
c process time taken by individual solving procedures
c (percentage relative to process time for solving)
c 
c        23.93  100.00% search
c        16.36   68.36% stable
c         7.34   30.66% unstable
c         0.22    0.93% walk
c         0.08    0.32% parse
c         0.01    0.04% lucky
c         0.00    0.00% simplify
c   =================================
c        23.93   99.68% solve
c 
c last line shows process time for solving
c (percentage relative to total process time)
c 
c --- [ statistics ] ---------------------------------------------------------
c 
c chronological:             16034        22.99 %  of conflicts
c conflicts:                 69740      2914.89    per second
c decisions:                148307      6198.71    per second
c fixed:                    144431        78.11 %  of all variables
c learned:                   67613        96.95 %  per conflict
c learned_lits:            3512701       100.00 %  learned literals
c minimized:                     0         0.00 %  learned literals
c shrunken:                1118181        31.83 %  learned literals
c minishrunken:             936607        26.66 %  learned literals
c otfs:                        609         0.87 %  of conflict
c propagations:          306171176        12.80 M  per second
c rephased:                     11      6340.00    interval
c restarts:                   3387        20.59    interval
c stabilizing:                   3        60.21 %  of conflicts
c subsumed:                   8726         1.59 %  of all clauses
c strengthened:                586         0.11 %  of all clauses
c walked:                        2     34870.00    interval
c 
c seconds are measured in process time for solving
c 
c --- [ resources ] ----------------------------------------------------------
c 
c total process time since initialization:        24.00    seconds
c total real time since initialization:           24.08    seconds
c maximum resident set size of process:           96.93    MB
c 
c --- [ shutting down ] ------------------------------------------------------
c 
c exit 20
